WARNING: for repeatability, setting FPU to use double precision
============================[ Problem Statistics ]=============================
|                                                                             |
|  Number of variables:           205                                         |
|  Number of clauses:            4549                                         |
|  Parse time:                   0.00 s                                       |
|                                                                             |
c ============================[ Search Statistics ]==============================
c | Conflicts |          ORIGINAL         |          LEARNT          | Progress |
c |           |    Vars  Clauses Literals |    Limit  Clauses Lit/Cl |          |
c ===============================================================================
CAREFUL: the definition is falsified in conflict 512896 at DL 18 (has happened 1 times)
c Switched to VSIDS.
c Switched to LRB.
c Switched to VSIDS.
c Switched to LRB.
c Switched to VSIDS.
c Switched to LRB.
c Switched to VSIDS.
c Switched to LRB.
c Switched to VSIDS.
c Switched to LRB.
c Switched to VSIDS.
c Switched to LRB.
c Switched to VSIDS.
c Switched to LRB.
c Switched to VSIDS.
c Switched to LRB.
c Switched to VSIDS.
c Switched to LRB.
c Switched to VSIDS.
c Switched to LRB.
c Switched to VSIDS.
c Switched to LRB.
c Switched to VSIDS.
c Switched to LRB.
c Switched to VSIDS.
c Switched to LRB.
c Switched to VSIDS.
c Switched to LRB.
c Switched to VSIDS.
c Switched to LRB.
c Switched to VSIDS.
c Switched to LRB.
c ===============================================================================
restarts                  : 26714
conflicts                 : 12154445       (6101 /sec)
decisions                 : 16712031       (0.00 % random) (8389 /sec)
propagations              : 6759036763     (3392761 /sec)
conflict literals         : 322264933      (46.51 % deleted)

conflicts w/ DIP found    : 4688933        (38.58 % of conflicts)
conflicts w/ dangerous DIP: 3              (0.00 % of conflicts)
conflicts w/ DIP-learning : 171857         (1.41 % of conflicts)
decisions on ext vars     : 271204         (1.62 % of decisions)
total ext vars            : 89111       
tried delete ext vars     : 88886       
deleted ext vars          : 88650       
max ext vars              : 1011        

Memory used               : 116.00 MB
CPU time                  : 1992.19 s
DIP computation time      : 54.2688 s (2.72 % of total time)
ER_sel time               : 11.5192 s
ER_add time               : 0.256723 s
ER_delC time              : 0 s
ER_delV time              : 1.13419 s
ER_sub time               : 14.1723 s
ER_stat time              : 0 s

UNSATISFIABLE
